750
[79,81,82,86,88,91,92,94,101,104,105,106,108,112,113,114,115,117,118,121,124,125,126,127,128,132,133,134,138,140,142,145,149,150,151,156,157,158,162,163,167,168,172,173,174,175,176,177,179,182,184,185,193,194,196,197,198,199,202,203,206,209,211,212,217,219,220,221,222,224,225,228,230,231,232,237,239,246,248,249,251,254,257,258,259,260,263,264,266,267,268,271,272,278,281,285,287,288,289,290,296,298,303,307,310,311,312,317,319,320,323,325,326,327,328,329,331,336,341,342,343,344,350,351,353,354,359,360,361,362,364,369,372,373,375,380,381,383,384,387,388,390,391,393,394,397,400,401,404,408,409,412,413,415,420,422,424,426,427,431,435,440,444,445,446,449,452,454,458,460,461,463,466,467,468,471,475,478,480,484,486,487,488,490,491,496,501,502,503,504,506,510,511,513,515,516,519,520,521,522,523,525,527,528,530,531,532,533,537,540,543,551,552,554,555,556,559,561,562,563,566,567,568,569,575,576,577,579,583,585,587,590,598]
[1,1,1,1,1,1,1,2,3,2,1,2,1,1,1,1,1,1,1,1,1,1,1,1,1,1,1,1,1,1,2,1,1,1,1,1,1,1,1,1,1,1,2,2,2,1,1,2,2,1,1,1,1,2,2,1,3,1,1,1,2,1,1,2,1,1,1,1,1,1,1,2,1,1,2,1,1,1,2,1,1,1,2,1,1,1,1,1,1,1,2,1,1,2,2,1,1,1,2,3,1,1,1,2,1,2,1,1,1,1,2,1,1,1,1,2,2,1,1,2,1,1,2,1,1,1,1,3,1,1,1,2,1,1,1,3,2,1,1,1,2,1,1,1,1,2,2,1,2,2,1,1,1,2,1,1,2,1,1,1,1,1,1,3,1,1,1,1,1,1,1,1,2,1,4,1,1,1,2,1,1,1,1,1,1,1,1,1,1,1,1,2,1,1,1,2,1,2,1,1,1,1,1,1,1,3,1,2,1,2,1,2,1,1,1,2,1,1,2,1,1,1,1,1,1,1,1,2,2,1,1,2,1]
